NAME reproduction_srl_ilp
* Max problem is converted into Min one
ROWS
 N  OBJ
 L  constraint1_2161
 L  constraint2_2160
 L  constraint2_2161
 L  constraint2_2162
 L  constraint2_2163
COLUMNS
    MARKER    'MARKER'                 'INTORG'
    Z_216_1_0  OBJ       -1.5077405808714829e-03
    Z_216_1_0  constraint1_2161  1
    Z_216_1_0  constraint2_2160  1
    Z_216_1_1  OBJ       -1.3979239523502899e-03
    Z_216_1_1  constraint1_2161  1
    Z_216_1_1  constraint2_2161  1
    Z_216_1_2  OBJ       -6.1165668062459067e-01
    Z_216_1_2  constraint1_2161  1
    Z_216_1_2  constraint2_2162  1
    Z_216_1_3  OBJ       -1.1396301313119947e-03
    Z_216_1_3  constraint1_2161  1
    Z_216_1_3  constraint2_2163  1
    Z_216_1_4  OBJ       -2.8429802471087567e-01
    Z_216_1_4  constraint1_2161  1
    MARKER    'MARKER'                 'INTEND'
RHS
    RHS1      constraint1_2161  1
    RHS1      constraint2_2160  1
    RHS1      constraint2_2161  1
    RHS1      constraint2_2162  1
    RHS1      constraint2_2163  1
BOUNDS
 UP BND1      Z_216_1_0  1
 UP BND1      Z_216_1_1  1
 UP BND1      Z_216_1_2  1
 UP BND1      Z_216_1_3  1
 UP BND1      Z_216_1_4  1
ENDATA
